PROBLEM NAME: eil51_n6
KNAPSACK DATA TYPE: uncorrelated
DIMENSION: 6
NUMBER OF ITEMS: 50
CAPACITY OF KNAPSACK: 2135
MIN SPEED: 0.1
MAX SPEED: 1
RENTING RATIO: 13.79
EDGE_WEIGHT_TYPE: CEIL_2D
NODE_COORD_SECTION	(INDEX, X, Y):
1	31	62
2	52	41
3	27	23
4	57	58
5	62	42
6	43	67
ITEMS SECTION	(INDEX, PROFIT, WEIGHT, ASSIGNED NODE NUMBER):
1	997	199	6
2	994	367	6
3	992	421	6
4	943	895	6
5	931	70	6
6	908	97	6
7	893	984	6
8	874	138	6
9	815	845	6
10	794	995	6
11	791	9	4
12	789	674	4
13	772	645	4
14	766	882	4
15	764	487	4
16	726	98	4
17	724	29	4
18	720	856	4
19	707	242	4
20	700	72	4
21	667	122	5
22	649	322	5
23	633	299	5
24	617	874	5
25	598	94	5
26	569	107	5
27	544	574	5
28	539	719	5
29	537	122	5
30	536	923	5
31	513	267	2
32	506	326	2
33	487	600	2
34	457	43	2
35	446	955	2
36	428	682	2
37	422	252	2
38	419	145	2
39	416	248	2
40	359	901	2
41	334	715	3
42	303	748	3
43	237	795	3
44	196	529	3
45	131	433	3
46	116	277	3
47	94	485	3
48	81	972	3
49	58	213	3
50	7	738	3
